142
100000
14507
34700
8284
20204
672
11265
1122
33498
35773
27441
47329
3299
10017
3174
17796
13369
1540
12113
6554
9409
47555
15564
10482
47245
33302
17557
18303
35666
36270
3599
23068
6915
37293
19197
7461
14437
7443
2440
49892
40239
2491
2135
5417
14750
2303
26513
5941
39553
33079
45547
2340
19234
24970
18199
3259
5950
42551
2
27163
905
1283
4041
10693
24909
26701
13508
47217
33200
3864
18147
28148
37692
47983
14331
15647
31842
35860
13807
18223
3884
30744
26308
26846
37580
44533
27546
42890
9021
18408
41073
48208
29532
41731
27399
21853
38048
17438
24283
32764
42942
44845
9493
18393
3103
29507
26684
12979
18022
1334
18958
27715
26327
16194
27651
15917
10917
5386
3229
36088
29672
28456
19116
26942
46511
26561
2655
25909
30412
600
5376
142
24179
49697
4918
25074
4542
22712
6890
22393
28681
32859
14538
